
Gurobi 9.5.0 (linux64) logging started Sat Nov  4 11:39:50 2023

Set parameter LogFile to value "/lustre1/scratch/348/vsc34888/JointResearch/05.Models/06.Benchmarking/E.Representative_days_based_on_Line_Benefits_OptModel/RTS24_ByStages/openStarNet_RTS24_ByStages.log"
Set parameter Method to value 2
Set parameter MIPFocus to value 1
Set parameter Presolve to value 2
Set parameter RINS to value 100
Set parameter MIPGap to value 0.01
Set parameter Threads to value 36
Set parameter TimeLimit to value 604800
Set parameter IterationLimit to value 760000000
Gurobi Optimizer version 9.5.0 build v9.5.0rc5 (linux64)
Thread count: 36 physical cores, 36 logical processors, using up to 36 threads
Optimize a model with 29818 rows, 16885 columns and 81165 nonzeros
Model fingerprint: 0x8b18b042
Variable types: 16846 continuous, 39 integer (39 binary)
Coefficient statistics:
  Matrix range     [1e-03, 2e+03]
  Objective range  [1e+00, 1e+00]
  Bounds range     [4e-04, 3e+00]
  RHS range        [4e-04, 3e+00]
Presolve removed 14542 rows and 7143 columns
Presolve time: 0.14s
Presolved: 15276 rows, 9742 columns, 53052 nonzeros
Variable types: 9703 continuous, 39 integer (39 binary)
Found heuristic solution: objective 141.5694190
Root relaxation presolved: 15276 rows, 9742 columns, 53052 nonzeros

Root barrier log...

Ordering time: 0.00s

Barrier statistics:
 Dense cols : 39
 AA' NZ     : 1.130e+05
 Factor NZ  : 3.790e+05 (roughly 13 MB of memory)
 Factor Ops : 1.193e+07 (less than 1 second per iteration)
 Threads    : 36

                  Objective                Residual
Iter       Primal          Dual         Primal    Dual     Compl     Time
   0   6.21793782e+05 -1.61586149e+08  4.59e+00 5.49e+02  1.53e+04     0s
   1   6.48306006e+04 -4.41215537e+07  4.35e-01 5.33e-09  1.98e+03     0s
   2   1.49420901e+04 -5.07838453e+06  1.12e-02 3.85e-09  1.69e+02     0s
   3   9.90582147e+03 -2.46109966e+05  4.25e-13 1.40e-10  8.29e+00     0s
   4   2.07440971e+03 -2.87986949e+04  5.94e-13 1.26e-11  1.00e+00     0s
   5   7.99213938e+02 -8.96781572e+03  3.62e-13 3.64e-12  3.16e-01     0s
   6   3.88872981e+02 -3.23951843e+03  2.94e-13 1.82e-12  1.18e-01     0s
   7   2.98577204e+02 -1.14380464e+03  2.78e-13 1.82e-12  4.67e-02     0s
   8   1.85940279e+02 -2.69415039e+02  2.89e-13 1.82e-12  1.47e-02     0s
   9   1.38727823e+02 -5.17255109e+01  2.13e-13 1.82e-12  6.17e-03     0s
  10   1.12524805e+02  3.63335859e+01  3.30e-13 1.82e-12  2.47e-03     0s
  11   1.01098101e+02  7.30141294e+01  4.65e-13 1.82e-12  9.10e-04     0s
  12   9.67578797e+01  7.80665092e+01  6.99e-12 3.64e-12  6.05e-04     0s
  13   9.19056502e+01  8.38451500e+01  8.69e-12 3.64e-12  2.61e-04     1s
  14   9.08764487e+01  8.62176032e+01  6.01e-12 1.82e-12  1.51e-04     1s
  15   8.91951644e+01  8.72465942e+01  1.44e-11 3.64e-12  6.31e-05     1s
  16   8.84429304e+01  8.77296336e+01  2.26e-11 3.64e-12  2.31e-05     1s
  17   8.83328839e+01  8.78603512e+01  1.96e-11 1.82e-12  1.53e-05     1s
  18   8.82320542e+01  8.79545066e+01  1.31e-10 3.64e-12  8.99e-06     1s
  19   8.80987524e+01  8.80160668e+01  4.64e-09 1.82e-12  2.68e-06     1s
  20   8.80692293e+01  8.80321217e+01  7.68e-09 1.82e-12  1.20e-06     1s
  21   8.80553344e+01  8.80483694e+01  2.29e-09 1.82e-12  2.26e-07     1s
  22   8.80506709e+01  8.80492354e+01  9.27e-10 1.82e-12  4.65e-08     1s
  23   8.80497563e+01  8.80493956e+01  5.01e-10 1.82e-12  1.17e-08     1s
  24   8.80494766e+01  8.80494245e+01  2.58e-10 3.64e-12  1.69e-09     1s
  25   8.80494313e+01  8.80494302e+01  1.75e-10 3.64e-12  3.73e-11     1s
  26   8.80494303e+01  8.80494303e+01  7.46e-11 3.64e-12  3.73e-14     1s

Barrier solved model in 26 iterations and 0.65 seconds (0.51 work units)
Optimal objective 8.80494303e+01


Root relaxation: objective 8.804943e+01, 1190 iterations, 0.44 seconds (0.24 work units)

    Nodes    |    Current Node    |     Objective Bounds      |     Work
 Expl Unexpl |  Obj  Depth IntInf | Incumbent    BestBd   Gap | It/Node Time

     0     0   88.04943    0   11  141.56942   88.04943  37.8%     -    0s
H    0     0                     115.7390662   88.04943  23.9%     -    1s
     0     0   92.63117    0   10  115.73907   92.63117  20.0%     -    1s
H    0     0                     101.4126572   92.63117  8.66%     -    1s
     0     0   93.09319    0   12  101.41266   93.09319  8.20%     -    1s
     0     0   93.22342    0    9  101.41266   93.22342  8.08%     -    1s
     0     0   93.22342    0    9  101.41266   93.22342  8.08%     -    1s
     0     0   93.24313    0    9  101.41266   93.24313  8.06%     -    2s
     0     0   93.24313    0    9  101.41266   93.24313  8.06%     -    2s
     0     0   93.24313    0    9  101.41266   93.24313  8.06%     -    2s
     0     0   93.24313    0   10  101.41266   93.24313  8.06%     -    2s
     0     0   93.24313    0    9  101.41266   93.24313  8.06%     -    2s
H    0     0                      99.8320609   93.24313  6.60%     -    4s
     0     2   93.24313    0    9   99.83206   93.24313  6.60%     -    4s
     1     4   96.41076    1   13   99.83206   93.24313  6.60%   857    5s
    95    51   99.14186    8    5   99.83206   96.58806  3.25%   214   10s
   303     4     cutoff   12        99.83206   98.15580  1.68%   156   17s

Cutting planes:
  Gomory: 6
  MIR: 314
  Relax-and-lift: 1

Explored 324 nodes (51880 simplex iterations) in 17.28 seconds (17.83 work units)
Thread count was 36 (of 36 available processors)

Solution count 4: 99.8321 101.413 115.739 141.569 

Optimal solution found (tolerance 1.00e-02)
Best objective 9.983206086900e+01, best bound 9.924301782474e+01, gap 0.5900%

Gurobi 9.5.0 (linux64) logging started Sat Nov  4 11:40:11 2023

Set parameter LogFile to value "/lustre1/scratch/348/vsc34888/JointResearch/05.Models/06.Benchmarking/E.Representative_days_based_on_Line_Benefits_OptModel/RTS24_ByStages/openStarNet_RTS24_ByStages.log"
Set parameter Method to value 2
Set parameter MIPFocus to value 1
Set parameter Presolve to value 2
Set parameter RINS to value 100
Set parameter MIPGap to value 0.01
Set parameter Threads to value 36
Set parameter TimeLimit to value 604800
Set parameter IterationLimit to value 760000000
No parameters matching 'relax_integrality' found
Gurobi Optimizer version 9.5.0 build v9.5.0rc5 (linux64)
Thread count: 36 physical cores, 36 logical processors, using up to 36 threads
Optimize a model with 29818 rows, 16846 columns and 70674 nonzeros
Model fingerprint: 0xd14ffe7f
Coefficient statistics:
  Matrix range     [1e-03, 2e+03]
  Objective range  [1e+00, 1e+00]
  Bounds range     [4e-04, 3e+00]
  RHS range        [4e-04, 3e+01]
Presolve removed 23658 rows and 7888 columns
Presolve time: 0.03s
Presolved: 6160 rows, 9092 columns, 22484 nonzeros

Ordering time: 0.00s

Barrier statistics:
 AA' NZ     : 1.555e+04
 Factor NZ  : 6.646e+04 (roughly 6 MB of memory)
 Factor Ops : 9.948e+05 (less than 1 second per iteration)
 Threads    : 1

                  Objective                Residual
Iter       Primal          Dual         Primal    Dual     Compl     Time
   0   7.02961756e+05 -4.90306422e+08  6.04e+00 2.03e+03  6.33e+04     0s
   1   7.37490843e+04 -8.31458186e+07  4.83e-01 5.38e-11  6.86e+03     0s
   2   3.84899620e+04 -7.09484890e+06  1.34e-01 3.77e-11  5.66e+02     0s
   3   2.06582129e+04 -6.35896698e+05  5.32e-03 2.73e-11  4.28e+01     0s
   4   7.34298888e+03 -1.13623187e+05  9.75e-07 4.92e-11  7.77e+00     0s
   5   3.43570295e+03 -2.70094358e+04  2.09e-07 2.18e-11  1.96e+00     0s
   6   1.93450477e+03 -9.53201042e+03  8.70e-08 7.28e-12  7.37e-01     0s
   7   6.19638351e+02 -2.63273424e+03  1.25e-08 7.28e-12  2.09e-01     0s
   8   3.28463869e+02 -7.58168573e+02  4.33e-09 7.28e-12  6.98e-02     0s
   9   2.04070936e+02 -2.07216765e+02  1.58e-09 3.64e-12  2.64e-02     0s
  10   1.34580879e+02  2.99220232e+01  3.70e-10 1.46e-11  6.72e-03     0s
  11   1.12256423e+02  6.09794266e+01  1.14e-10 1.46e-11  3.29e-03     0s
  12   1.06352238e+02  8.47544904e+01  5.37e-11 7.28e-12  1.39e-03     0s
  13   1.03005033e+02  9.26026120e+01  2.42e-11 7.28e-12  6.68e-04     0s
  14   1.01265419e+02  9.69472330e+01  1.02e-11 3.64e-12  2.77e-04     0s
  15   1.00396970e+02  9.89542253e+01  3.85e-12 1.82e-12  9.27e-05     0s
  16   9.99793195e+01  9.97157775e+01  9.68e-13 2.91e-11  1.69e-05     0s
  17   9.98545626e+01  9.98288381e+01  3.82e-12 3.64e-12  1.65e-06     0s
  18   9.98322533e+01  9.98318533e+01  2.30e-11 1.46e-11  2.57e-08     0s
  19   9.98320609e+01  9.98320607e+01  3.39e-12 1.82e-12  8.78e-12     0s
  20   9.98320609e+01  9.98320609e+01  9.00e-13 3.64e-12  1.02e-16     0s

Barrier solved model in 20 iterations and 0.11 seconds (0.09 work units)
Optimal objective 9.98320609e+01

Crossover log...

     728 DPushes remaining with DInf 0.0000000e+00                 0s
       0 DPushes remaining with DInf 0.0000000e+00                 0s

     545 PPushes remaining with PInf 0.0000000e+00                 0s
       0 PPushes remaining with PInf 0.0000000e+00                 0s

  Push phase complete: Pinf 0.0000000e+00, Dinf 1.5439568e-12      0s

Iteration    Objective       Primal Inf.    Dual Inf.      Time
     554    9.9832061e+01   0.000000e+00   0.000000e+00      0s

Use crossover to convert LP symmetric solution to basic solution...
Crossover log...

       0 DPushes remaining with DInf 0.0000000e+00                 0s

     247 PPushes remaining with PInf 0.0000000e+00                 0s
       0 PPushes remaining with PInf 0.0000000e+00                 0s

  Push phase complete: Pinf 0.0000000e+00, Dinf 2.3385951e-12      0s

Iteration    Objective       Primal Inf.    Dual Inf.      Time
     806    9.9832061e+01   0.000000e+00   0.000000e+00      0s

Solved in 806 iterations and 0.16 seconds (0.12 work units)
Optimal objective  9.983206087e+01

Gurobi 9.5.0 (linux64) logging started Sat Nov  4 12:08:33 2023

Set parameter LogFile to value "/lustre1/scratch/348/vsc34888/JointResearch/05.Models/06.Benchmarking/E.Representative_days_based_on_Line_Benefits_OptModel/RTS24_ByStages/openStarNet_RTS24_ByStages.log"
Set parameter Method to value 2
Set parameter MIPFocus to value 1
Set parameter Presolve to value 2
Set parameter RINS to value 100
Set parameter MIPGap to value 0.01
Set parameter Threads to value 36
Set parameter TimeLimit to value 604800
Set parameter IterationLimit to value 760000000
Gurobi Optimizer version 9.5.0 build v9.5.0rc5 (linux64)
Thread count: 36 physical cores, 36 logical processors, using up to 36 threads
Optimize a model with 29818 rows, 16885 columns and 81165 nonzeros
Model fingerprint: 0xa1376cc2
Variable types: 16846 continuous, 39 integer (39 binary)
Coefficient statistics:
  Matrix range     [1e-03, 2e+03]
  Objective range  [1e+00, 1e+00]
  Bounds range     [4e-04, 3e+00]
  RHS range        [4e-04, 3e+00]
Presolve removed 14542 rows and 7143 columns
Presolve time: 0.14s
Presolved: 15276 rows, 9742 columns, 53052 nonzeros
Variable types: 9703 continuous, 39 integer (39 binary)
Found heuristic solution: objective 141.5694190
Root relaxation presolved: 15276 rows, 9742 columns, 53052 nonzeros

Root barrier log...

Ordering time: 0.00s

Barrier statistics:
 Dense cols : 39
 AA' NZ     : 1.130e+05
 Factor NZ  : 3.790e+05 (roughly 13 MB of memory)
 Factor Ops : 1.193e+07 (less than 1 second per iteration)
 Threads    : 36

                  Objective                Residual
Iter       Primal          Dual         Primal    Dual     Compl     Time
   0   6.21793782e+05 -1.61586149e+08  4.59e+00 5.49e+02  1.53e+04     0s
   1   6.48306006e+04 -4.41215537e+07  4.35e-01 6.69e-09  1.98e+03     0s
   2   1.49420901e+04 -5.07838453e+06  1.12e-02 3.88e-09  1.69e+02     0s
   3   9.90582147e+03 -2.46109966e+05  5.33e-13 1.44e-10  8.29e+00     0s
   4   2.07440971e+03 -2.87986949e+04  8.19e-13 1.21e-11  1.00e+00     0s
   5   7.99213938e+02 -8.96781572e+03  3.14e-13 3.64e-12  3.16e-01     0s
   6   3.88872981e+02 -3.23951843e+03  2.74e-13 3.64e-12  1.18e-01     0s
   7   2.98577204e+02 -1.14380464e+03  1.79e-13 1.82e-12  4.67e-02     0s
   8   1.85940279e+02 -2.69415039e+02  2.35e-13 1.82e-12  1.47e-02     0s
   9   1.38727823e+02 -5.17255109e+01  2.34e-13 1.82e-12  6.17e-03     0s
  10   1.12524805e+02  3.63335859e+01  2.57e-13 1.82e-12  2.47e-03     0s
  11   1.01098101e+02  7.30141294e+01  8.71e-13 1.82e-12  9.10e-04     0s
  12   9.67578797e+01  7.80665092e+01  9.75e-12 1.82e-12  6.05e-04     0s
  13   9.19056503e+01  8.38451500e+01  7.63e-12 1.82e-12  2.61e-04     1s
  14   9.08764487e+01  8.62176032e+01  5.77e-12 1.82e-12  1.51e-04     1s
  15   8.91951644e+01  8.72465942e+01  1.32e-11 1.82e-12  6.31e-05     1s
  16   8.84429304e+01  8.77296336e+01  2.18e-11 1.82e-12  2.31e-05     1s
  17   8.83328839e+01  8.78603512e+01  1.45e-11 3.64e-12  1.53e-05     1s
  18   8.82320543e+01  8.79545066e+01  2.40e-10 3.64e-12  8.99e-06     1s
  19   8.80987524e+01  8.80160668e+01  4.63e-09 3.64e-12  2.68e-06     1s
  20   8.80692293e+01  8.80321217e+01  8.44e-09 1.82e-12  1.20e-06     1s
  21   8.80553342e+01  8.80483694e+01  7.31e-09 3.64e-12  2.26e-07     1s
  22   8.80506709e+01  8.80492355e+01  1.61e-09 1.82e-12  4.65e-08     1s
  23   8.80497563e+01  8.80493956e+01  5.45e-10 3.64e-12  1.17e-08     1s
  24   8.80494766e+01  8.80494245e+01  2.73e-10 3.64e-12  1.69e-09     1s
  25   8.80494313e+01  8.80494302e+01  1.37e-10 1.82e-12  3.73e-11     1s
  26   8.80494303e+01  8.80494303e+01  9.54e-11 1.82e-12  3.73e-14     1s

Barrier solved model in 26 iterations and 0.64 seconds (0.50 work units)
Optimal objective 8.80494303e+01


Root relaxation: objective 8.804943e+01, 1190 iterations, 0.43 seconds (0.24 work units)

    Nodes    |    Current Node    |     Objective Bounds      |     Work
 Expl Unexpl |  Obj  Depth IntInf | Incumbent    BestBd   Gap | It/Node Time

     0     0   88.04943    0   11  141.56942   88.04943  37.8%     -    0s
H    0     0                     115.7390662   88.04943  23.9%     -    0s
     0     0   92.95626    0   13  115.73907   92.95626  19.7%     -    1s
H    0     0                     104.9144545   92.95626  11.4%     -    1s
H    0     0                     103.4418570   93.09320  10.0%     -    1s
     0     0   93.09320    0   12  103.44186   93.09320  10.0%     -    1s
     0     0   93.09320    0   12  103.44186   93.09320  10.0%     -    1s
     0     0   93.22327    0    9  103.44186   93.22327  9.88%     -    1s
     0     0   93.22529    0    9  103.44186   93.22529  9.88%     -    1s
     0     0   93.22761    0    9  103.44186   93.22761  9.87%     -    2s
     0     0   93.22761    0   10  103.44186   93.22761  9.87%     -    2s
     0     0   93.39012    0   10  103.44186   93.39012  9.72%     -    2s
     0     0   93.39012    0   10  103.44186   93.39012  9.72%     -    2s
     0     0   93.39012    0   10  103.44186   93.39012  9.72%     -    3s
H    0     0                      99.8320609   93.39012  6.45%     -    4s
     0     2   93.39012    0   10   99.83206   93.39012  6.45%     -    5s
   128    58   96.70604    9    7   99.83206   96.61481  3.22%   209   12s
   321     3   99.26909   10    3   99.83206   98.66840  1.17%   147   15s

Cutting planes:
  Gomory: 5
  MIR: 371
  Relax-and-lift: 1

Explored 329 nodes (51508 simplex iterations) in 15.15 seconds (14.47 work units)
Thread count was 36 (of 36 available processors)

Solution count 5: 99.8321 103.442 104.914 ... 141.569

Optimal solution found (tolerance 1.00e-02)
Best objective 9.983206086901e+01, best bound 9.983206086901e+01, gap 0.0000%

Gurobi 9.5.0 (linux64) logging started Sat Nov  4 12:08:51 2023

Set parameter LogFile to value "/lustre1/scratch/348/vsc34888/JointResearch/05.Models/06.Benchmarking/E.Representative_days_based_on_Line_Benefits_OptModel/RTS24_ByStages/openStarNet_RTS24_ByStages.log"
Set parameter Method to value 2
Set parameter MIPFocus to value 1
Set parameter Presolve to value 2
Set parameter RINS to value 100
Set parameter MIPGap to value 0.01
Set parameter Threads to value 36
Set parameter TimeLimit to value 604800
Set parameter IterationLimit to value 760000000
No parameters matching 'relax_integrality' found
Gurobi Optimizer version 9.5.0 build v9.5.0rc5 (linux64)
Thread count: 36 physical cores, 36 logical processors, using up to 36 threads
Optimize a model with 29818 rows, 16846 columns and 70674 nonzeros
Model fingerprint: 0x6f6fba37
Coefficient statistics:
  Matrix range     [1e-03, 2e+03]
  Objective range  [1e+00, 1e+00]
  Bounds range     [4e-04, 3e+00]
  RHS range        [4e-04, 3e+01]
Presolve removed 23658 rows and 7888 columns
Presolve time: 0.03s
Presolved: 6160 rows, 9092 columns, 22484 nonzeros

Ordering time: 0.00s

Barrier statistics:
 AA' NZ     : 1.560e+04
 Factor NZ  : 6.680e+04 (roughly 6 MB of memory)
 Factor Ops : 1.004e+06 (less than 1 second per iteration)
 Threads    : 36

                  Objective                Residual
Iter       Primal          Dual         Primal    Dual     Compl     Time
   0   6.99481484e+05 -4.90451204e+08  6.04e+00 9.62e+02  6.33e+04     0s
   1   7.61740019e+04 -7.62463187e+07  5.13e-01 4.46e-11  6.48e+03     0s
   2   3.88853578e+04 -7.58576928e+06  1.41e-01 3.83e-11  6.09e+02     0s
   3   2.14839876e+04 -8.12571200e+05  6.13e-03 2.20e-11  5.44e+01     0s
   4   9.21558837e+03 -1.28177058e+05  1.66e-04 2.41e-10  8.82e+00     0s
   5   4.14210939e+03 -3.33524340e+04  4.39e-05 4.68e-11  2.41e+00     0s
   6   2.22824035e+03 -8.86015117e+03  1.71e-05 8.13e-12  7.12e-01     0s
   7   6.82447053e+02 -2.43121768e+03  2.64e-06 1.82e-12  2.00e-01     0s
   8   3.62063229e+02 -7.26058447e+02  9.84e-07 7.28e-12  6.99e-02     0s
   9   2.43650307e+02 -1.56218884e+02  4.93e-07 1.46e-11  2.57e-02     0s
  10   1.47822939e+02  2.40952356e+01  1.33e-07 1.46e-11  7.94e-03     0s
  11   1.18287930e+02  5.99189348e+01  4.61e-08 2.91e-11  3.75e-03     0s
  12   1.08890679e+02  8.43876046e+01  2.09e-08 7.28e-12  1.57e-03     0s
  13   1.04017803e+02  9.28757920e+01  9.05e-09 7.28e-12  7.15e-04     0s
  14   1.01731143e+02  9.70328103e+01  3.85e-09 3.64e-12  3.02e-04     0s
  15   1.00543733e+02  9.90652739e+01  1.39e-09 3.64e-12  9.49e-05     0s
  16   1.00028911e+02  9.97259683e+01  3.70e-10 3.64e-12  1.94e-05     0s
  17   9.98620891e+01  9.98257747e+01  5.37e-11 7.28e-12  2.33e-06     0s
  18   9.98324028e+01  9.98317746e+01  5.04e-12 3.64e-12  4.03e-08     0s
  19   9.98320611e+01  9.98320608e+01  9.87e-13 3.64e-12  1.51e-11     0s
  20   9.98320609e+01  9.98320609e+01  7.29e-11 3.64e-12  8.56e-17     0s

Barrier solved model in 20 iterations and 0.15 seconds (0.09 work units)
Optimal objective 9.98320609e+01

Crossover log...

     724 DPushes remaining with DInf 0.0000000e+00                 0s
       0 DPushes remaining with DInf 0.0000000e+00                 0s

     545 PPushes remaining with PInf 0.0000000e+00                 0s
       0 PPushes remaining with PInf 0.0000000e+00                 0s

  Push phase complete: Pinf 0.0000000e+00, Dinf 3.2661602e-12      0s

Iteration    Objective       Primal Inf.    Dual Inf.      Time
     550    9.9832061e+01   0.000000e+00   0.000000e+00      0s

Use crossover to convert LP symmetric solution to basic solution...
Crossover log...

       0 DPushes remaining with DInf 0.0000000e+00                 0s

     291 PPushes remaining with PInf 0.0000000e+00                 0s
       0 PPushes remaining with PInf 0.0000000e+00                 0s

  Push phase complete: Pinf 0.0000000e+00, Dinf 1.0933268e-12      0s

Iteration    Objective       Primal Inf.    Dual Inf.      Time
     846    9.9832061e+01   0.000000e+00   0.000000e+00      0s

Solved in 846 iterations and 0.22 seconds (0.12 work units)
Optimal objective  9.983206087e+01
